Maximize
  0.000290971 Z_321_0_0 + 0.0463456343972328 Z_321_0_1
   + 0.5947688864005245 Z_321_0_2 + 0.00558766104527899 Z_321_0_3
   + 0.0091723640357238 Z_465_0_0 + 0.0779106301967705 Z_465_0_1
   + 0.0231675730308843 Z_465_0_2 + 0.109726441576969 Z_465_0_3
   + 0.3335267357017818 Z_45_0_0 + 0.0540596820081973 Z_45_0_1
   + 0.0267670568675178 Z_45_0_2 + 0.00720447860863064 Z_45_0_3
   + 0.00150888341398375 Z_45_1_0 + 0.00818928070517629 Z_45_1_1
   + 0.8032748895682303 Z_45_1_2 + 0.00252865022502258 Z_45_1_3
   + 0.000265085 Z_630_0_0 + 0.0570259112951194 Z_630_0_1
   + 0.3233667574719016 Z_630_0_2 + 0.00537422084342279 Z_630_0_3
   + 0.00786979057930002 Z_48_0_0 + 0.0127189335204474 Z_48_0_1
   + 0.0180669545686273 Z_48_0_2 + 0.6868754491410027 Z_48_0_3
   + 0.037464088416577 Z_513_0_0 + 0.2611450781738519 Z_513_0_1
   + 0.0882084432191584 Z_513_0_2 + 0.0048686635569474 Z_513_0_3
   + 0.0139212742152951 Z_324_4_0 + 0.0143433254559901 Z_324_4_1
   + 0.1497384863723635 Z_324_4_2 + 0.0503190773954426 Z_324_4_3
   + 0.00218168299971508 Z_324_0_0 + 0.00252240750258841 Z_324_0_1
   + 0.0299940052691757 Z_324_0_2 + 0.0283602603734496 Z_324_0_3
   + 0.00254988922402702 Z_324_2_0 + 0.097395265038911 Z_324_2_1
   + 0.033500096380995 Z_324_2_2 + 0.1211979790181174 Z_324_2_3
   + 0.0102284547927392 Z_324_1_0 + 0.0142652707675776 Z_324_1_1
   + 0.00532908605951186 Z_324_1_2 + 0.0667823035036354 Z_324_1_3
   + 0.0311877947454384 Z_324_3_0 + 0.0588816039089901 Z_324_3_1
   + 0.00189451928279598 Z_324_3_2 + 0.4960829123334597 Z_324_3_3
   + 0.0311877947454384 Z_324_5_0 + 0.0588816039089901 Z_324_5_1
   + 0.00189451928279598 Z_324_5_2 + 0.4960829123334597 Z_324_5_3
   + 0.0338864754415574 Z_602_0_0 + 0.6021278965270545 Z_602_0_1
   + 0.0261644745032462 Z_602_0_2 + 0.02478808253653 Z_602_0_3
   + 0.68697215070648 Z_326_0_0 + 0.5085901325156172 Z_326_0_1
   + 0.000338557 Z_326_0_2 + 0.00155208872497189 Z_326_0_3
   + 1.7077429013652169e-04 Z_484_0_0 + 0.0981905583677746 Z_484_0_1
   + 0.5596825600153926 Z_484_0_2 + 0.00461103768922803 Z_484_0_3
   + 0.0602008628238849 Z_157_0_0 + 0.6525510758868647 Z_157_0_1
   + 0.00285966834172821 Z_157_0_2 + 0.00860383563421244 Z_157_0_3
   + 0.00892446558790074 Z_483_0_0 + 0.7116507336394601 Z_483_0_1
   + 0.0232421615500194 Z_483_0_2 + 0.1993123242199016 Z_483_0_3
   + 0.0486273907564567 Z_623_0_0 + 0.039890453574929 Z_623_0_1
   + 0.0449601728189157 Z_623_0_2 + 0.0379440165661637 Z_623_0_3
   + 0.0486273907564567 Z_421_0_0 + 0.039890453574929 Z_421_0_1
   + 0.0296543502929064 Z_421_0_2 + 0.0379440165661637 Z_421_0_3
   + 0.00313148013545482 Z_636_0_0 + 0.0173039808923755 Z_636_0_1
   + 0.3221347463131655 Z_636_0_2 + 0.6423666977908947 Z_636_0_3
   + 0.0178727102133283 Z_119_3_0 + 0.041494295063764 Z_119_3_1
   + 0.0273298174385765 Z_119_3_2 + 0.0229810784806321 Z_119_3_3
   + 0.00629275283519574 Z_119_2_0 + 0.0554223370090779 Z_119_2_1
   + 0.0392455982439565 Z_119_2_2 + 0.0125288515666147 Z_119_2_3
   + 0.00192483361024255 Z_119_5_0 + 0.0313078033402692 Z_119_5_1
   + 0.2096884656402952 Z_119_5_2 + 0.00627673564627344 Z_119_5_3
   + 0.00269311939245278 Z_119_0_0 + 0.4789789452814887 Z_119_0_1
   + 0.0176898037538965 Z_119_0_2 + 0.1726456427821397 Z_119_0_3
   + 0.00999230642055584 Z_119_4_0 + 0.2238864852812839 Z_119_4_1
   + 0.0926632745757205 Z_119_4_2 + 0.0587621823787613 Z_119_4_3
   + 0.00999230642055584 Z_119_6_0 + 0.2238864852812839 Z_119_6_1
   + 0.0926632745757205 Z_119_6_2 + 0.0587621823787613 Z_119_6_3
   + 0.00999230642055584 Z_119_7_0 + 0.2238864852812839 Z_119_7_1
   + 0.0926632745757205 Z_119_7_2 + 0.0587621823787613 Z_119_7_3
   + 0.0173124310846656 Z_309_0_0 + 0.0370860632896535 Z_309_0_1
   + 0.0120362500366684 Z_309_0_2 + 0.3559720082643144 Z_309_0_3
   + 0.00933578251149641 Z_628_0_0 + 0.7307025358062261 Z_628_0_1
   + 0.0177641737669452 Z_628_0_2 + 0.0188729313950117 Z_628_0_3 + [
   0.00195719536696078 Z_321_0_0 * Z_157_0_0
   + 0.00195719536696078 Z_321_0_1 * Z_157_0_1
   + 0.00195719536696078 Z_321_0_2 * Z_157_0_2
   + 0.00195719536696078 Z_321_0_3 * Z_157_0_3 + 0.4 Z_465_0_0 * Z_48_0_0
   + 0.00305192231470472 Z_465_0_0 * Z_324_0_0
   + 0.0275824289842537 Z_465_0_0 * Z_324_2_0
   + 0.2177392767852029 Z_465_0_0 * Z_324_1_0
   + 6.36857e-05 Z_465_0_0 * Z_324_3_0
   + 0.0155598893794232 Z_465_0_0 * Z_324_5_0
   + 0.066763771045848 Z_465_0_0 * Z_602_0_0
   + 6.36857e-05 Z_465_0_0 * Z_326_0_0
   + 0.0175422695853522 Z_465_0_0 * Z_157_0_0
   + 0.0244379209730025 Z_465_0_0 * Z_483_0_0 + 0.4 Z_465_0_0 * Z_119_3_0
   + 2.89835e-05 Z_465_0_0 * Z_119_5_0
   + 0.0468093665963397 Z_465_0_0 * Z_119_0_0
   + 0.0491169336040003 Z_465_0_0 * Z_119_4_0
   + 0.0459911529062288 Z_465_0_0 * Z_119_6_0
   + 0.0814361354773577 Z_465_0_0 * Z_119_7_0
   + 6.36857e-05 Z_465_0_0 * Z_309_0_0
   + 0.0553083869745992 Z_465_0_0 * Z_628_0_0 + 0.4 Z_465_0_1 * Z_48_0_1
   + 0.00305192231470472 Z_465_0_1 * Z_324_0_1
   + 0.0275824289842537 Z_465_0_1 * Z_324_2_1
   + 0.2177392767852029 Z_465_0_1 * Z_324_1_1
   + 6.36857e-05 Z_465_0_1 * Z_324_3_1
   + 0.0155598893794232 Z_465_0_1 * Z_324_5_1
   + 0.066763771045848 Z_465_0_1 * Z_602_0_1
   + 6.36857e-05 Z_465_0_1 * Z_326_0_1
   + 0.0175422695853522 Z_465_0_1 * Z_157_0_1
   + 0.0244379209730025 Z_465_0_1 * Z_483_0_1 + 0.4 Z_465_0_1 * Z_119_3_1
   + 2.89835e-05 Z_465_0_1 * Z_119_5_1
   + 0.0468093665963397 Z_465_0_1 * Z_119_0_1
   + 0.0491169336040003 Z_465_0_1 * Z_119_4_1
   + 0.0459911529062288 Z_465_0_1 * Z_119_6_1
   + 0.0814361354773577 Z_465_0_1 * Z_119_7_1
   + 6.36857e-05 Z_465_0_1 * Z_309_0_1
   + 0.0553083869745992 Z_465_0_1 * Z_628_0_1 + 0.4 Z_465_0_2 * Z_48_0_2
   + 0.00305192231470472 Z_465_0_2 * Z_324_0_2
   + 0.0275824289842537 Z_465_0_2 * Z_324_2_2
   + 0.2177392767852029 Z_465_0_2 * Z_324_1_2
   + 6.36857e-05 Z_465_0_2 * Z_324_3_2
   + 0.0155598893794232 Z_465_0_2 * Z_324_5_2
   + 0.066763771045848 Z_465_0_2 * Z_602_0_2
   + 6.36857e-05 Z_465_0_2 * Z_326_0_2
   + 0.0175422695853522 Z_465_0_2 * Z_157_0_2
   + 0.0244379209730025 Z_465_0_2 * Z_483_0_2 + 0.4 Z_465_0_2 * Z_119_3_2
   + 2.89835e-05 Z_465_0_2 * Z_119_5_2
   + 0.0468093665963397 Z_465_0_2 * Z_119_0_2
   + 0.0491169336040003 Z_465_0_2 * Z_119_4_2
   + 0.0459911529062288 Z_465_0_2 * Z_119_6_2
   + 0.0814361354773577 Z_465_0_2 * Z_119_7_2
   + 6.36857e-05 Z_465_0_2 * Z_309_0_2
   + 0.0553083869745992 Z_465_0_2 * Z_628_0_2 + 0.4 Z_465_0_3 * Z_48_0_3
   + 0.00305192231470472 Z_465_0_3 * Z_324_0_3
   + 0.0275824289842537 Z_465_0_3 * Z_324_2_3
   + 0.2177392767852029 Z_465_0_3 * Z_324_1_3
   + 6.36857e-05 Z_465_0_3 * Z_324_3_3
   + 0.0155598893794232 Z_465_0_3 * Z_324_5_3
   + 0.066763771045848 Z_465_0_3 * Z_602_0_3
   + 6.36857e-05 Z_465_0_3 * Z_326_0_3
   + 0.0175422695853522 Z_465_0_3 * Z_157_0_3
   + 0.0244379209730025 Z_465_0_3 * Z_483_0_3 + 0.4 Z_465_0_3 * Z_119_3_3
   + 2.89835e-05 Z_465_0_3 * Z_119_5_3
   + 0.0468093665963397 Z_465_0_3 * Z_119_0_3
   + 0.0491169336040003 Z_465_0_3 * Z_119_4_3
   + 0.0459911529062288 Z_465_0_3 * Z_119_6_3
   + 0.0814361354773577 Z_465_0_3 * Z_119_7_3
   + 6.36857e-05 Z_465_0_3 * Z_309_0_3
   + 0.0553083869745992 Z_465_0_3 * Z_628_0_3
   + 2.1724e-05 Z_45_0_0 * Z_157_0_0 + 0.4 Z_45_0_0 * Z_483_0_0
   + 0.4 Z_45_0_0 * Z_119_0_0 + 0.4 Z_45_0_0 * Z_119_4_0
   + 0.4 Z_45_0_0 * Z_119_6_0 + 2.1724e-05 Z_45_0_1 * Z_157_0_1
   + 0.4 Z_45_0_1 * Z_483_0_1 + 0.4 Z_45_0_1 * Z_119_0_1
   + 0.4 Z_45_0_1 * Z_119_4_1 + 0.4 Z_45_0_1 * Z_119_6_1
   + 2.1724e-05 Z_45_0_2 * Z_157_0_2 + 0.4 Z_45_0_2 * Z_483_0_2
   + 0.4 Z_45_0_2 * Z_119_0_2 + 0.4 Z_45_0_2 * Z_119_4_2
   + 0.4 Z_45_0_2 * Z_119_6_2 + 2.1724e-05 Z_45_0_3 * Z_157_0_3
   + 0.4 Z_45_0_3 * Z_483_0_3 + 0.4 Z_45_0_3 * Z_119_0_3
   + 0.4 Z_45_0_3 * Z_119_4_3 + 0.4 Z_45_0_3 * Z_119_6_3
   + 7.97194e-06 Z_630_0_0 * Z_119_0_0 + 7.97194e-06 Z_630_0_0 * Z_119_4_0
   + 7.97194e-06 Z_630_0_0 * Z_119_6_0 + 7.97194e-06 Z_630_0_0 * Z_119_7_0
   + 7.97194e-06 Z_630_0_1 * Z_119_0_1 + 7.97194e-06 Z_630_0_1 * Z_119_4_1
   + 7.97194e-06 Z_630_0_1 * Z_119_6_1 + 7.97194e-06 Z_630_0_1 * Z_119_7_1
   + 7.97194e-06 Z_630_0_2 * Z_119_0_2 + 7.97194e-06 Z_630_0_2 * Z_119_4_2
   + 7.97194e-06 Z_630_0_2 * Z_119_6_2 + 7.97194e-06 Z_630_0_2 * Z_119_7_2
   + 7.97194e-06 Z_630_0_3 * Z_119_0_3 + 7.97194e-06 Z_630_0_3 * Z_119_4_3
   + 7.97194e-06 Z_630_0_3 * Z_119_6_3 + 7.97194e-06 Z_630_0_3 * Z_119_7_3
   + 0.0175422695853522 Z_48_0_0 * Z_157_0_0
   + 0.0175422695853522 Z_48_0_1 * Z_157_0_1
   + 0.0175422695853522 Z_48_0_2 * Z_157_0_2
   + 0.0175422695853522 Z_48_0_3 * Z_157_0_3 + 0.4 Z_513_0_0 * Z_628_0_0
   + 0.4 Z_513_0_1 * Z_628_0_1 + 0.4 Z_513_0_2 * Z_628_0_2
   + 0.4 Z_513_0_3 * Z_628_0_3
   + 1.1691686053138571e-04 Z_324_4_0 * Z_602_0_0
   + 5.99141e-05 Z_324_4_0 * Z_157_0_0 + 2.90118e-05 Z_324_4_0 * Z_119_0_0
   + 2.37056e-05 Z_324_4_0 * Z_119_4_0 + 2.85047e-05 Z_324_4_0 * Z_119_6_0
   + 5.0473e-05 Z_324_4_0 * Z_119_7_0
   + 1.1691686053138571e-04 Z_324_4_1 * Z_602_0_1
   + 5.99141e-05 Z_324_4_1 * Z_157_0_1 + 2.90118e-05 Z_324_4_1 * Z_119_0_1
   + 2.37056e-05 Z_324_4_1 * Z_119_4_1 + 2.85047e-05 Z_324_4_1 * Z_119_6_1
   + 5.0473e-05 Z_324_4_1 * Z_119_7_1
   + 1.1691686053138571e-04 Z_324_4_2 * Z_602_0_2
   + 5.99141e-05 Z_324_4_2 * Z_157_0_2 + 2.90118e-05 Z_324_4_2 * Z_119_0_2
   + 2.37056e-05 Z_324_4_2 * Z_119_4_2 + 2.85047e-05 Z_324_4_2 * Z_119_6_2
   + 5.0473e-05 Z_324_4_2 * Z_119_7_2
   + 1.1691686053138571e-04 Z_324_4_3 * Z_602_0_3
   + 5.99141e-05 Z_324_4_3 * Z_157_0_3 + 2.90118e-05 Z_324_4_3 * Z_119_0_3
   + 2.37056e-05 Z_324_4_3 * Z_119_4_3 + 2.85047e-05 Z_324_4_3 * Z_119_6_3
   + 5.0473e-05 Z_324_4_3 * Z_119_7_3 + 7.71605e-05 Z_324_0_0 * Z_421_0_0
   + 0.0694444444444444 Z_324_0_0 * Z_119_5_0
   + 0.0694444444444444 Z_324_0_0 * Z_119_0_0
   + 0.0694444444444444 Z_324_0_0 * Z_119_4_0
   + 0.0694444444444444 Z_324_0_0 * Z_119_6_0
   + 7.71605e-05 Z_324_0_1 * Z_421_0_1
   + 0.0694444444444444 Z_324_0_1 * Z_119_5_1
   + 0.0694444444444444 Z_324_0_1 * Z_119_0_1
   + 0.0694444444444444 Z_324_0_1 * Z_119_4_1
   + 0.0694444444444444 Z_324_0_1 * Z_119_6_1
   + 7.71605e-05 Z_324_0_2 * Z_421_0_2
   + 0.0694444444444444 Z_324_0_2 * Z_119_5_2
   + 0.0694444444444444 Z_324_0_2 * Z_119_0_2
   + 0.0694444444444444 Z_324_0_2 * Z_119_4_2
   + 0.0694444444444444 Z_324_0_2 * Z_119_6_2
   + 7.71605e-05 Z_324_0_3 * Z_421_0_3
   + 0.0694444444444444 Z_324_0_3 * Z_119_5_3
   + 0.0694444444444444 Z_324_0_3 * Z_119_0_3
   + 0.0694444444444444 Z_324_0_3 * Z_119_4_3
   + 0.0694444444444444 Z_324_0_3 * Z_119_6_3
   + 0.00727453085201506 Z_324_2_0 * Z_326_0_0
   + 0.0275824289842537 Z_324_2_0 * Z_483_0_0
   + 0.0275824289842537 Z_324_2_0 * Z_119_0_0
   + 0.0275824289842537 Z_324_2_0 * Z_119_4_0
   + 0.0275824289842537 Z_324_2_0 * Z_119_6_0
   + 0.0275824289842537 Z_324_2_0 * Z_119_7_0
   + 0.0659009464299086 Z_324_2_0 * Z_628_0_0
   + 0.00727453085201506 Z_324_2_1 * Z_326_0_1
   + 0.0275824289842537 Z_324_2_1 * Z_483_0_1
   + 0.0275824289842537 Z_324_2_1 * Z_119_0_1
   + 0.0275824289842537 Z_324_2_1 * Z_119_4_1
   + 0.0275824289842537 Z_324_2_1 * Z_119_6_1
   + 0.0275824289842537 Z_324_2_1 * Z_119_7_1
   + 0.0659009464299086 Z_324_2_1 * Z_628_0_1
   + 0.00727453085201506 Z_324_2_2 * Z_326_0_2
   + 0.0275824289842537 Z_324_2_2 * Z_483_0_2
   + 0.0275824289842537 Z_324_2_2 * Z_119_0_2
   + 0.0275824289842537 Z_324_2_2 * Z_119_4_2
   + 0.0275824289842537 Z_324_2_2 * Z_119_6_2
   + 0.0275824289842537 Z_324_2_2 * Z_119_7_2
   + 0.0659009464299086 Z_324_2_2 * Z_628_0_2
   + 0.00727453085201506 Z_324_2_3 * Z_326_0_3
   + 0.0275824289842537 Z_324_2_3 * Z_483_0_3
   + 0.0275824289842537 Z_324_2_3 * Z_119_0_3
   + 0.0275824289842537 Z_324_2_3 * Z_119_4_3
   + 0.0275824289842537 Z_324_2_3 * Z_119_6_3
   + 0.0275824289842537 Z_324_2_3 * Z_119_7_3
   + 0.0659009464299086 Z_324_2_3 * Z_628_0_3
   + 0.1854549195717999 Z_324_1_0 * Z_602_0_0
   + 0.0720081070749125 Z_324_1_0 * Z_326_0_0
   + 0.0469726888070588 Z_324_1_0 * Z_157_0_0 + 0.4 Z_324_1_0 * Z_119_3_0
   + 0.2177392767852029 Z_324_1_0 * Z_119_0_0
   + 0.2177392767852029 Z_324_1_0 * Z_119_4_0
   + 0.2177392767852029 Z_324_1_0 * Z_119_6_0
   + 0.2177392767852029 Z_324_1_0 * Z_119_7_0
   + 0.1721389874514571 Z_324_1_0 * Z_309_0_0
   + 0.0725040418448573 Z_324_1_0 * Z_628_0_0
   + 0.1854549195717999 Z_324_1_1 * Z_602_0_1
   + 0.0720081070749125 Z_324_1_1 * Z_326_0_1
   + 0.0469726888070588 Z_324_1_1 * Z_157_0_1 + 0.4 Z_324_1_1 * Z_119_3_1
   + 0.2177392767852029 Z_324_1_1 * Z_119_0_1
   + 0.2177392767852029 Z_324_1_1 * Z_119_4_1
   + 0.2177392767852029 Z_324_1_1 * Z_119_6_1
   + 0.2177392767852029 Z_324_1_1 * Z_119_7_1
   + 0.1721389874514571 Z_324_1_1 * Z_309_0_1
   + 0.0725040418448573 Z_324_1_1 * Z_628_0_1
   + 0.1854549195717999 Z_324_1_2 * Z_602_0_2
   + 0.0720081070749125 Z_324_1_2 * Z_326_0_2
   + 0.0469726888070588 Z_324_1_2 * Z_157_0_2 + 0.4 Z_324_1_2 * Z_119_3_2
   + 0.2177392767852029 Z_324_1_2 * Z_119_0_2
   + 0.2177392767852029 Z_324_1_2 * Z_119_4_2
   + 0.2177392767852029 Z_324_1_2 * Z_119_6_2
   + 0.2177392767852029 Z_324_1_2 * Z_119_7_2
   + 0.1721389874514571 Z_324_1_2 * Z_309_0_2
   + 0.0725040418448573 Z_324_1_2 * Z_628_0_2
   + 0.1854549195717999 Z_324_1_3 * Z_602_0_3
   + 0.0720081070749125 Z_324_1_3 * Z_326_0_3
   + 0.0469726888070588 Z_324_1_3 * Z_157_0_3 + 0.4 Z_324_1_3 * Z_119_3_3
   + 0.2177392767852029 Z_324_1_3 * Z_119_0_3
   + 0.2177392767852029 Z_324_1_3 * Z_119_4_3
   + 0.2177392767852029 Z_324_1_3 * Z_119_6_3
   + 0.2177392767852029 Z_324_1_3 * Z_119_7_3
   + 0.1721389874514571 Z_324_1_3 * Z_309_0_3
   + 0.0725040418448573 Z_324_1_3 * Z_628_0_3
   + 3.9203048132498331e-04 Z_324_3_0 * Z_602_0_0
   + 0.0720081070749125 Z_324_3_0 * Z_326_0_0
   + 0.0386701489672075 Z_324_3_0 * Z_157_0_0
   + 0.022067347647686 Z_324_3_0 * Z_483_0_0
   + 8.4555423437706419e-04 Z_324_3_0 * Z_119_3_0
   + 0.4 Z_324_3_0 * Z_119_5_0 + 0.0108136569058172 Z_324_3_0 * Z_119_0_0
   + 0.00883583868410331 Z_324_3_0 * Z_119_4_0
   + 0.0106246374260879 Z_324_3_0 * Z_119_6_0
   + 1.6772333459438716e-04 Z_324_3_0 * Z_119_7_0
   + 0.1721389874514571 Z_324_3_0 * Z_309_0_0
   + 0.0360417253213988 Z_324_3_0 * Z_628_0_0
   + 3.9203048132498331e-04 Z_324_3_1 * Z_602_0_1
   + 0.0720081070749125 Z_324_3_1 * Z_326_0_1
   + 0.0386701489672075 Z_324_3_1 * Z_157_0_1
   + 0.022067347647686 Z_324_3_1 * Z_483_0_1
   + 8.4555423437706419e-04 Z_324_3_1 * Z_119_3_1
   + 0.4 Z_324_3_1 * Z_119_5_1 + 0.0108136569058172 Z_324_3_1 * Z_119_0_1
   + 0.00883583868410331 Z_324_3_1 * Z_119_4_1
   + 0.0106246374260879 Z_324_3_1 * Z_119_6_1
   + 1.6772333459438716e-04 Z_324_3_1 * Z_119_7_1
   + 0.1721389874514571 Z_324_3_1 * Z_309_0_1
   + 0.0360417253213988 Z_324_3_1 * Z_628_0_1
   + 3.9203048132498331e-04 Z_324_3_2 * Z_602_0_2
   + 0.0720081070749125 Z_324_3_2 * Z_326_0_2
   + 0.0386701489672075 Z_324_3_2 * Z_157_0_2
   + 0.022067347647686 Z_324_3_2 * Z_483_0_2
   + 8.4555423437706419e-04 Z_324_3_2 * Z_119_3_2
   + 0.4 Z_324_3_2 * Z_119_5_2 + 0.0108136569058172 Z_324_3_2 * Z_119_0_2
   + 0.00883583868410331 Z_324_3_2 * Z_119_4_2
   + 0.0106246374260879 Z_324_3_2 * Z_119_6_2
   + 1.6772333459438716e-04 Z_324_3_2 * Z_119_7_2
   + 0.1721389874514571 Z_324_3_2 * Z_309_0_2
   + 0.0360417253213988 Z_324_3_2 * Z_628_0_2
   + 3.9203048132498331e-04 Z_324_3_3 * Z_602_0_3
   + 0.0720081070749125 Z_324_3_3 * Z_326_0_3
   + 0.0386701489672075 Z_324_3_3 * Z_157_0_3
   + 0.022067347647686 Z_324_3_3 * Z_483_0_3
   + 8.4555423437706419e-04 Z_324_3_3 * Z_119_3_3
   + 0.4 Z_324_3_3 * Z_119_5_3 + 0.0108136569058172 Z_324_3_3 * Z_119_0_3
   + 0.00883583868410331 Z_324_3_3 * Z_119_4_3
   + 0.0106246374260879 Z_324_3_3 * Z_119_6_3
   + 1.6772333459438716e-04 Z_324_3_3 * Z_119_7_3
   + 0.1721389874514571 Z_324_3_3 * Z_309_0_3
   + 0.0360417253213988 Z_324_3_3 * Z_628_0_3
   + 3.9203048132498331e-04 Z_324_5_0 * Z_602_0_0
   + 0.0625544664206384 Z_324_5_0 * Z_326_0_0
   + 0.0190451208714452 Z_324_5_0 * Z_157_0_0
   + 0.0330112790050399 Z_324_5_0 * Z_483_0_0
   + 8.4555423437706419e-04 Z_324_5_0 * Z_119_3_0
   + 0.4 Z_324_5_0 * Z_119_5_0 + 0.0224471257179554 Z_324_5_0 * Z_119_0_0
   + 0.0183415456485348 Z_324_5_0 * Z_119_4_0
   + 0.0220547566922334 Z_324_5_0 * Z_119_6_0
   + 0.0155598893794232 Z_324_5_0 * Z_119_7_0
   + 0.1721389874514571 Z_324_5_0 * Z_309_0_0
   + 0.0688824058140864 Z_324_5_0 * Z_628_0_0
   + 3.9203048132498331e-04 Z_324_5_1 * Z_602_0_1
   + 0.0625544664206384 Z_324_5_1 * Z_326_0_1
   + 0.0190451208714452 Z_324_5_1 * Z_157_0_1
   + 0.0330112790050399 Z_324_5_1 * Z_483_0_1
   + 8.4555423437706419e-04 Z_324_5_1 * Z_119_3_1
   + 0.4 Z_324_5_1 * Z_119_5_1 + 0.0224471257179554 Z_324_5_1 * Z_119_0_1
   + 0.0183415456485348 Z_324_5_1 * Z_119_4_1
   + 0.0220547566922334 Z_324_5_1 * Z_119_6_1
   + 0.0155598893794232 Z_324_5_1 * Z_119_7_1
   + 0.1721389874514571 Z_324_5_1 * Z_309_0_1
   + 0.0688824058140864 Z_324_5_1 * Z_628_0_1
   + 3.9203048132498331e-04 Z_324_5_2 * Z_602_0_2
   + 0.0625544664206384 Z_324_5_2 * Z_326_0_2
   + 0.0190451208714452 Z_324_5_2 * Z_157_0_2
   + 0.0330112790050399 Z_324_5_2 * Z_483_0_2
   + 8.4555423437706419e-04 Z_324_5_2 * Z_119_3_2
   + 0.4 Z_324_5_2 * Z_119_5_2 + 0.0224471257179554 Z_324_5_2 * Z_119_0_2
   + 0.0183415456485348 Z_324_5_2 * Z_119_4_2
   + 0.0220547566922334 Z_324_5_2 * Z_119_6_2
   + 0.0155598893794232 Z_324_5_2 * Z_119_7_2
   + 0.1721389874514571 Z_324_5_2 * Z_309_0_2
   + 0.0688824058140864 Z_324_5_2 * Z_628_0_2
   + 3.9203048132498331e-04 Z_324_5_3 * Z_602_0_3
   + 0.0625544664206384 Z_324_5_3 * Z_326_0_3
   + 0.0190451208714452 Z_324_5_3 * Z_157_0_3
   + 0.0330112790050399 Z_324_5_3 * Z_483_0_3
   + 8.4555423437706419e-04 Z_324_5_3 * Z_119_3_3
   + 0.4 Z_324_5_3 * Z_119_5_3 + 0.0224471257179554 Z_324_5_3 * Z_119_0_3
   + 0.0183415456485348 Z_324_5_3 * Z_119_4_3
   + 0.0220547566922334 Z_324_5_3 * Z_119_6_3
   + 0.0155598893794232 Z_324_5_3 * Z_119_7_3
   + 0.1721389874514571 Z_324_5_3 * Z_309_0_3
   + 0.0688824058140864 Z_324_5_3 * Z_628_0_3
   + 0.00795124300096841 Z_602_0_0 * Z_326_0_0
   + 1.0405827263267426e-04 Z_602_0_0 * Z_484_0_0
   + 0.0469726888070588 Z_602_0_0 * Z_157_0_0
   + 0.066763771045848 Z_602_0_0 * Z_119_3_0
   + 0.2697695397807892 Z_602_0_0 * Z_119_0_0
   + 0.2697695397807892 Z_602_0_0 * Z_119_4_0
   + 0.2697695397807892 Z_602_0_0 * Z_119_6_0
   + 0.2697695397807892 Z_602_0_0 * Z_119_7_0
   + 3.9203048132498331e-04 Z_602_0_0 * Z_309_0_0
   + 0.1854549195717999 Z_602_0_0 * Z_628_0_0
   + 0.00795124300096841 Z_602_0_1 * Z_326_0_1
   + 1.0405827263267426e-04 Z_602_0_1 * Z_484_0_1
   + 0.0469726888070588 Z_602_0_1 * Z_157_0_1
   + 0.066763771045848 Z_602_0_1 * Z_119_3_1
   + 0.2697695397807892 Z_602_0_1 * Z_119_0_1
   + 0.2697695397807892 Z_602_0_1 * Z_119_4_1
   + 0.2697695397807892 Z_602_0_1 * Z_119_6_1
   + 0.2697695397807892 Z_602_0_1 * Z_119_7_1
   + 3.9203048132498331e-04 Z_602_0_1 * Z_309_0_1
   + 0.1854549195717999 Z_602_0_1 * Z_628_0_1
   + 0.00795124300096841 Z_602_0_2 * Z_326_0_2
   + 1.0405827263267426e-04 Z_602_0_2 * Z_484_0_2
   + 0.0469726888070588 Z_602_0_2 * Z_157_0_2
   + 0.066763771045848 Z_602_0_2 * Z_119_3_2
   + 0.2697695397807892 Z_602_0_2 * Z_119_0_2
   + 0.2697695397807892 Z_602_0_2 * Z_119_4_2
   + 0.2697695397807892 Z_602_0_2 * Z_119_6_2
   + 0.2697695397807892 Z_602_0_2 * Z_119_7_2
   + 3.9203048132498331e-04 Z_602_0_2 * Z_309_0_2
   + 0.1854549195717999 Z_602_0_2 * Z_628_0_2
   + 0.00795124300096841 Z_602_0_3 * Z_326_0_3
   + 1.0405827263267426e-04 Z_602_0_3 * Z_484_0_3
   + 0.0469726888070588 Z_602_0_3 * Z_157_0_3
   + 0.066763771045848 Z_602_0_3 * Z_119_3_3
   + 0.2697695397807892 Z_602_0_3 * Z_119_0_3
   + 0.2697695397807892 Z_602_0_3 * Z_119_4_3
   + 0.2697695397807892 Z_602_0_3 * Z_119_6_3
   + 0.2697695397807892 Z_602_0_3 * Z_119_7_3
   + 3.9203048132498331e-04 Z_602_0_3 * Z_309_0_3
   + 0.1854549195717999 Z_602_0_3 * Z_628_0_3
   + 0.0436465608479607 Z_326_0_0 * Z_157_0_0
   + 0.0269051820381547 Z_326_0_0 * Z_483_0_0
   + 0.0436465608479607 Z_326_0_0 * Z_636_0_0
   + 8.4555423437706419e-04 Z_326_0_0 * Z_119_3_0
   + 0.0179402919774953 Z_326_0_0 * Z_119_0_0
   + 0.0504996963633213 Z_326_0_0 * Z_119_4_0
   + 0.0504996963633213 Z_326_0_0 * Z_119_6_0
   + 0.0909247457420446 Z_326_0_0 * Z_119_7_0
   + 0.1721389874514571 Z_326_0_0 * Z_309_0_0
   + 1.5326524897842734e-04 Z_326_0_0 * Z_628_0_0
   + 0.0436465608479607 Z_326_0_1 * Z_157_0_1
   + 0.0269051820381547 Z_326_0_1 * Z_483_0_1
   + 0.0436465608479607 Z_326_0_1 * Z_636_0_1
   + 8.4555423437706419e-04 Z_326_0_1 * Z_119_3_1
   + 0.0179402919774953 Z_326_0_1 * Z_119_0_1
   + 0.0504996963633213 Z_326_0_1 * Z_119_4_1
   + 0.0504996963633213 Z_326_0_1 * Z_119_6_1
   + 0.0909247457420446 Z_326_0_1 * Z_119_7_1
   + 0.1721389874514571 Z_326_0_1 * Z_309_0_1
   + 1.5326524897842734e-04 Z_326_0_1 * Z_628_0_1
   + 0.0436465608479607 Z_326_0_2 * Z_157_0_2
   + 0.0269051820381547 Z_326_0_2 * Z_483_0_2
   + 0.0436465608479607 Z_326_0_2 * Z_636_0_2
   + 8.4555423437706419e-04 Z_326_0_2 * Z_119_3_2
   + 0.0179402919774953 Z_326_0_2 * Z_119_0_2
   + 0.0504996963633213 Z_326_0_2 * Z_119_4_2
   + 0.0504996963633213 Z_326_0_2 * Z_119_6_2
   + 0.0909247457420446 Z_326_0_2 * Z_119_7_2
   + 0.1721389874514571 Z_326_0_2 * Z_309_0_2
   + 1.5326524897842734e-04 Z_326_0_2 * Z_628_0_2
   + 0.0436465608479607 Z_326_0_3 * Z_157_0_3
   + 0.0269051820381547 Z_326_0_3 * Z_483_0_3
   + 0.0436465608479607 Z_326_0_3 * Z_636_0_3
   + 8.4555423437706419e-04 Z_326_0_3 * Z_119_3_3
   + 0.0179402919774953 Z_326_0_3 * Z_119_0_3
   + 0.0504996963633213 Z_326_0_3 * Z_119_4_3
   + 0.0504996963633213 Z_326_0_3 * Z_119_6_3
   + 0.0909247457420446 Z_326_0_3 * Z_119_7_3
   + 0.1721389874514571 Z_326_0_3 * Z_309_0_3
   + 1.5326524897842734e-04 Z_326_0_3 * Z_628_0_3
   + 0.4 Z_484_0_0 * Z_157_0_0 + 1.35208e-05 Z_484_0_0 * Z_119_2_0
   + 0.00104792218699899 Z_484_0_0 * Z_119_0_0 + 0.4 Z_484_0_0 * Z_119_4_0
   + 0.4 Z_484_0_0 * Z_119_6_0 + 0.4 Z_484_0_0 * Z_119_7_0
   + 0.4 Z_484_0_1 * Z_157_0_1 + 1.35208e-05 Z_484_0_1 * Z_119_2_1
   + 0.00104792218699899 Z_484_0_1 * Z_119_0_1 + 0.4 Z_484_0_1 * Z_119_4_1
   + 0.4 Z_484_0_1 * Z_119_6_1 + 0.4 Z_484_0_1 * Z_119_7_1
   + 0.4 Z_484_0_2 * Z_157_0_2 + 1.35208e-05 Z_484_0_2 * Z_119_2_2
   + 0.00104792218699899 Z_484_0_2 * Z_119_0_2 + 0.4 Z_484_0_2 * Z_119_4_2
   + 0.4 Z_484_0_2 * Z_119_6_2 + 0.4 Z_484_0_2 * Z_119_7_2
   + 0.4 Z_484_0_3 * Z_157_0_3 + 1.35208e-05 Z_484_0_3 * Z_119_2_3
   + 0.00104792218699899 Z_484_0_3 * Z_119_0_3 + 0.4 Z_484_0_3 * Z_119_4_3
   + 0.4 Z_484_0_3 * Z_119_6_3 + 0.4 Z_484_0_3 * Z_119_7_3
   + 0.0232954022796844 Z_157_0_0 * Z_483_0_0
   + 2.2652724154638708e-04 Z_157_0_0 * Z_421_0_0
   + 0.073567370764389 Z_157_0_0 * Z_636_0_0
   + 0.0169101679705412 Z_157_0_0 * Z_119_3_0
   + 1.35208e-05 Z_157_0_0 * Z_119_2_0
   + 0.0602160917730946 Z_157_0_0 * Z_119_0_0
   + 0.106371208894423 Z_157_0_0 * Z_119_4_0
   + 0.106371208894423 Z_157_0_0 * Z_119_6_0
   + 0.106371208894423 Z_157_0_0 * Z_119_7_0
   + 9.92949e-05 Z_157_0_0 * Z_309_0_0
   + 0.0469726888070588 Z_157_0_0 * Z_628_0_0
   + 0.0232954022796844 Z_157_0_1 * Z_483_0_1
   + 2.2652724154638708e-04 Z_157_0_1 * Z_421_0_1
   + 0.073567370764389 Z_157_0_1 * Z_636_0_1
   + 0.0169101679705412 Z_157_0_1 * Z_119_3_1
   + 1.35208e-05 Z_157_0_1 * Z_119_2_1
   + 0.0602160917730946 Z_157_0_1 * Z_119_0_1
   + 0.106371208894423 Z_157_0_1 * Z_119_4_1
   + 0.106371208894423 Z_157_0_1 * Z_119_6_1
   + 0.106371208894423 Z_157_0_1 * Z_119_7_1
   + 9.92949e-05 Z_157_0_1 * Z_309_0_1
   + 0.0469726888070588 Z_157_0_1 * Z_628_0_1
   + 0.0232954022796844 Z_157_0_2 * Z_483_0_2
   + 2.2652724154638708e-04 Z_157_0_2 * Z_421_0_2
   + 0.073567370764389 Z_157_0_2 * Z_636_0_2
   + 0.0169101679705412 Z_157_0_2 * Z_119_3_2
   + 1.35208e-05 Z_157_0_2 * Z_119_2_2
   + 0.0602160917730946 Z_157_0_2 * Z_119_0_2
   + 0.106371208894423 Z_157_0_2 * Z_119_4_2
   + 0.106371208894423 Z_157_0_2 * Z_119_6_2
   + 0.106371208894423 Z_157_0_2 * Z_119_7_2
   + 9.92949e-05 Z_157_0_2 * Z_309_0_2
   + 0.0469726888070588 Z_157_0_2 * Z_628_0_2
   + 0.0232954022796844 Z_157_0_3 * Z_483_0_3
   + 2.2652724154638708e-04 Z_157_0_3 * Z_421_0_3
   + 0.073567370764389 Z_157_0_3 * Z_636_0_3
   + 0.0169101679705412 Z_157_0_3 * Z_119_3_3
   + 1.35208e-05 Z_157_0_3 * Z_119_2_3
   + 0.0602160917730946 Z_157_0_3 * Z_119_0_3
   + 0.106371208894423 Z_157_0_3 * Z_119_4_3
   + 0.106371208894423 Z_157_0_3 * Z_119_6_3
   + 0.106371208894423 Z_157_0_3 * Z_119_7_3
   + 9.92949e-05 Z_157_0_3 * Z_309_0_3
   + 0.0469726888070588 Z_157_0_3 * Z_628_0_3
   + 0.0367836853821945 Z_483_0_0 * Z_636_0_0
   + 0.1283881289520646 Z_483_0_0 * Z_119_0_0
   + 0.1283881289520646 Z_483_0_0 * Z_119_4_0
   + 0.1283881289520646 Z_483_0_0 * Z_119_6_0
   + 0.0477333232526869 Z_483_0_0 * Z_119_7_0
   + 0.00120288094529881 Z_483_0_0 * Z_309_0_0
   + 0.0549094501168222 Z_483_0_0 * Z_628_0_0
   + 0.0367836853821945 Z_483_0_1 * Z_636_0_1
   + 0.1283881289520646 Z_483_0_1 * Z_119_0_1
   + 0.1283881289520646 Z_483_0_1 * Z_119_4_1
   + 0.1283881289520646 Z_483_0_1 * Z_119_6_1
   + 0.0477333232526869 Z_483_0_1 * Z_119_7_1
   + 0.00120288094529881 Z_483_0_1 * Z_309_0_1
   + 0.0549094501168222 Z_483_0_1 * Z_628_0_1
   + 0.0367836853821945 Z_483_0_2 * Z_636_0_2
   + 0.1283881289520646 Z_483_0_2 * Z_119_0_2
   + 0.1283881289520646 Z_483_0_2 * Z_119_4_2
   + 0.1283881289520646 Z_483_0_2 * Z_119_6_2
   + 0.0477333232526869 Z_483_0_2 * Z_119_7_2
   + 0.00120288094529881 Z_483_0_2 * Z_309_0_2
   + 0.0549094501168222 Z_483_0_2 * Z_628_0_2
   + 0.0367836853821945 Z_483_0_3 * Z_636_0_3
   + 0.1283881289520646 Z_483_0_3 * Z_119_0_3
   + 0.1283881289520646 Z_483_0_3 * Z_119_4_3
   + 0.1283881289520646 Z_483_0_3 * Z_119_6_3
   + 0.0477333232526869 Z_483_0_3 * Z_119_7_3
   + 0.00120288094529881 Z_483_0_3 * Z_309_0_3
   + 0.0549094501168222 Z_483_0_3 * Z_628_0_3
   + 0.0367836853821945 Z_636_0_0 * Z_119_0_0
   + 0.0367836853821945 Z_636_0_0 * Z_119_4_0
   + 0.0367836853821945 Z_636_0_0 * Z_119_6_0
   + 0.0367836853821945 Z_636_0_0 * Z_119_7_0
   + 0.0367836853821945 Z_636_0_1 * Z_119_0_1
   + 0.0367836853821945 Z_636_0_1 * Z_119_4_1
   + 0.0367836853821945 Z_636_0_1 * Z_119_6_1
   + 0.0367836853821945 Z_636_0_1 * Z_119_7_1
   + 0.0367836853821945 Z_636_0_2 * Z_119_0_2
   + 0.0367836853821945 Z_636_0_2 * Z_119_4_2
   + 0.0367836853821945 Z_636_0_2 * Z_119_6_2
   + 0.0367836853821945 Z_636_0_2 * Z_119_7_2
   + 0.0367836853821945 Z_636_0_3 * Z_119_0_3
   + 0.0367836853821945 Z_636_0_3 * Z_119_4_3
   + 0.0367836853821945 Z_636_0_3 * Z_119_6_3
   + 0.0367836853821945 Z_636_0_3 * Z_119_7_3
   + 8.4555423437706419e-04 Z_119_3_0 * Z_309_0_0
   + 0.0261014550641486 Z_119_3_0 * Z_628_0_0
   + 8.4555423437706419e-04 Z_119_3_1 * Z_309_0_1
   + 0.0261014550641486 Z_119_3_1 * Z_628_0_1
   + 8.4555423437706419e-04 Z_119_3_2 * Z_309_0_2
   + 0.0261014550641486 Z_119_3_2 * Z_628_0_2
   + 8.4555423437706419e-04 Z_119_3_3 * Z_309_0_3
   + 0.0261014550641486 Z_119_3_3 * Z_628_0_3
   + 0.00120288094529881 Z_119_0_0 * Z_309_0_0
   + 0.0553083869745992 Z_119_0_0 * Z_628_0_0
   + 0.00120288094529881 Z_119_0_1 * Z_309_0_1
   + 0.0553083869745992 Z_119_0_1 * Z_628_0_1
   + 0.00120288094529881 Z_119_0_2 * Z_309_0_2
   + 0.0553083869745992 Z_119_0_2 * Z_628_0_2
   + 0.00120288094529881 Z_119_0_3 * Z_309_0_3
   + 0.0553083869745992 Z_119_0_3 * Z_628_0_3
   + 0.00120288094529881 Z_119_4_0 * Z_309_0_0
   + 0.0553083869745992 Z_119_4_0 * Z_628_0_0
   + 0.00120288094529881 Z_119_4_1 * Z_309_0_1
   + 0.0553083869745992 Z_119_4_1 * Z_628_0_1
   + 0.00120288094529881 Z_119_4_2 * Z_309_0_2
   + 0.0553083869745992 Z_119_4_2 * Z_628_0_2
   + 0.00120288094529881 Z_119_4_3 * Z_309_0_3
   + 0.0553083869745992 Z_119_4_3 * Z_628_0_3
   + 0.00120288094529881 Z_119_6_0 * Z_309_0_0
   + 0.0553083869745992 Z_119_6_0 * Z_628_0_0
   + 0.00120288094529881 Z_119_6_1 * Z_309_0_1
   + 0.0553083869745992 Z_119_6_1 * Z_628_0_1
   + 0.00120288094529881 Z_119_6_2 * Z_309_0_2
   + 0.0553083869745992 Z_119_6_2 * Z_628_0_2
   + 0.00120288094529881 Z_119_6_3 * Z_309_0_3
   + 0.0553083869745992 Z_119_6_3 * Z_628_0_3
   + 1.2381731009418486e-04 Z_119_7_0 * Z_309_0_0
   + 0.0624336774842618 Z_119_7_0 * Z_628_0_0
   + 1.2381731009418486e-04 Z_119_7_1 * Z_309_0_1
   + 0.0624336774842618 Z_119_7_1 * Z_628_0_1
   + 1.2381731009418486e-04 Z_119_7_2 * Z_309_0_2
   + 0.0624336774842618 Z_119_7_2 * Z_628_0_2
   + 1.2381731009418486e-04 Z_119_7_3 * Z_309_0_3
   + 0.0624336774842618 Z_119_7_3 * Z_628_0_3
   + 1.5326524897842734e-04 Z_309_0_0 * Z_628_0_0
   + 1.5326524897842734e-04 Z_309_0_1 * Z_628_0_1
   + 1.5326524897842734e-04 Z_309_0_2 * Z_628_0_2
   + 1.5326524897842734e-04 Z_309_0_3 * Z_628_0_3 ] / 2 
Subject To
 constraint1_3210: Z_321_0_0 + Z_321_0_1 + Z_321_0_2 + Z_321_0_3 <= 1
 constraint1_4650: Z_465_0_0 + Z_465_0_1 + Z_465_0_2 + Z_465_0_3 <= 1
 constraint1_450: Z_45_0_0 + Z_45_0_1 + Z_45_0_2 + Z_45_0_3 <= 1
 constraint1_451: Z_45_1_0 + Z_45_1_1 + Z_45_1_2 + Z_45_1_3 <= 1
 constraint1_6300: Z_630_0_0 + Z_630_0_1 + Z_630_0_2 + Z_630_0_3 <= 1
 constraint1_480: Z_48_0_0 + Z_48_0_1 + Z_48_0_2 + Z_48_0_3 <= 1
 constraint1_5130: Z_513_0_0 + Z_513_0_1 + Z_513_0_2 + Z_513_0_3 <= 1
 constraint1_3244: Z_324_4_0 + Z_324_4_1 + Z_324_4_2 + Z_324_4_3 <= 1
 constraint1_3240: Z_324_0_0 + Z_324_0_1 + Z_324_0_2 + Z_324_0_3 <= 1
 constraint1_3242: Z_324_2_0 + Z_324_2_1 + Z_324_2_2 + Z_324_2_3 <= 1
 constraint1_3241: Z_324_1_0 + Z_324_1_1 + Z_324_1_2 + Z_324_1_3 <= 1
 constraint1_3243: Z_324_3_0 + Z_324_3_1 + Z_324_3_2 + Z_324_3_3 <= 1
 constraint1_3245: Z_324_5_0 + Z_324_5_1 + Z_324_5_2 + Z_324_5_3 <= 1
 constraint1_6020: Z_602_0_0 + Z_602_0_1 + Z_602_0_2 + Z_602_0_3 <= 1
 constraint1_3260: Z_326_0_0 + Z_326_0_1 + Z_326_0_2 + Z_326_0_3 <= 1
 constraint1_4840: Z_484_0_0 + Z_484_0_1 + Z_484_0_2 + Z_484_0_3 <= 1
 constraint1_1570: Z_157_0_0 + Z_157_0_1 + Z_157_0_2 + Z_157_0_3 <= 1
 constraint1_4830: Z_483_0_0 + Z_483_0_1 + Z_483_0_2 + Z_483_0_3 <= 1
 constraint1_6230: Z_623_0_0 + Z_623_0_1 + Z_623_0_2 + Z_623_0_3 <= 1
 constraint1_4210: Z_421_0_0 + Z_421_0_1 + Z_421_0_2 + Z_421_0_3 <= 1
 constraint1_6360: Z_636_0_0 + Z_636_0_1 + Z_636_0_2 + Z_636_0_3 <= 1
 constraint1_1193: Z_119_3_0 + Z_119_3_1 + Z_119_3_2 + Z_119_3_3 <= 1
 constraint1_1192: Z_119_2_0 + Z_119_2_1 + Z_119_2_2 + Z_119_2_3 <= 1
 constraint1_1195: Z_119_5_0 + Z_119_5_1 + Z_119_5_2 + Z_119_5_3 <= 1
 constraint1_1190: Z_119_0_0 + Z_119_0_1 + Z_119_0_2 + Z_119_0_3 <= 1
 constraint1_1194: Z_119_4_0 + Z_119_4_1 + Z_119_4_2 + Z_119_4_3 <= 1
 constraint1_1196: Z_119_6_0 + Z_119_6_1 + Z_119_6_2 + Z_119_6_3 <= 1
 constraint1_1197: Z_119_7_0 + Z_119_7_1 + Z_119_7_2 + Z_119_7_3 <= 1
 constraint1_3090: Z_309_0_0 + Z_309_0_1 + Z_309_0_2 + Z_309_0_3 <= 1
 constraint1_6280: Z_628_0_0 + Z_628_0_1 + Z_628_0_2 + Z_628_0_3 <= 1
 constraint2_3210: Z_321_0_0 <= 1
 constraint2_3211: Z_321_0_1 <= 1
 constraint2_3212: Z_321_0_2 <= 1
 constraint2_3213: Z_321_0_3 <= 1
 constraint2_4650: Z_465_0_0 <= 1
 constraint2_4651: Z_465_0_1 <= 1
 constraint2_4652: Z_465_0_2 <= 1
 constraint2_4653: Z_465_0_3 <= 1
 constraint2_450: Z_45_0_0 + Z_45_1_0 <= 1
 constraint2_451: Z_45_0_1 + Z_45_1_1 <= 1
 constraint2_452: Z_45_0_2 + Z_45_1_2 <= 1
 constraint2_453: Z_45_0_3 + Z_45_1_3 <= 1
 constraint2_6300: Z_630_0_0 <= 1
 constraint2_6301: Z_630_0_1 <= 1
 constraint2_6302: Z_630_0_2 <= 1
 constraint2_6303: Z_630_0_3 <= 1
 constraint2_480: Z_48_0_0 <= 1
 constraint2_481: Z_48_0_1 <= 1
 constraint2_482: Z_48_0_2 <= 1
 constraint2_483: Z_48_0_3 <= 1
 constraint2_5130: Z_513_0_0 <= 1
 constraint2_5131: Z_513_0_1 <= 1
 constraint2_5132: Z_513_0_2 <= 1
 constraint2_5133: Z_513_0_3 <= 1
 constraint2_3240: Z_324_4_0 + Z_324_0_0 + Z_324_2_0 + Z_324_1_0
   + Z_324_3_0 + Z_324_5_0 <= 1
 constraint2_3241: Z_324_4_1 + Z_324_0_1 + Z_324_2_1 + Z_324_1_1
   + Z_324_3_1 + Z_324_5_1 <= 1
 constraint2_3242: Z_324_4_2 + Z_324_0_2 + Z_324_2_2 + Z_324_1_2
   + Z_324_3_2 + Z_324_5_2 <= 1
 constraint2_3243: Z_324_4_3 + Z_324_0_3 + Z_324_2_3 + Z_324_1_3
   + Z_324_3_3 + Z_324_5_3 <= 1
 constraint2_6020: Z_602_0_0 <= 1
 constraint2_6021: Z_602_0_1 <= 1
 constraint2_6022: Z_602_0_2 <= 1
 constraint2_6023: Z_602_0_3 <= 1
 constraint2_3260: Z_326_0_0 <= 1
 constraint2_3261: Z_326_0_1 <= 1
 constraint2_3262: Z_326_0_2 <= 1
 constraint2_3263: Z_326_0_3 <= 1
 constraint2_4840: Z_484_0_0 <= 1
 constraint2_4841: Z_484_0_1 <= 1
 constraint2_4842: Z_484_0_2 <= 1
 constraint2_4843: Z_484_0_3 <= 1
 constraint2_1570: Z_157_0_0 <= 1
 constraint2_1571: Z_157_0_1 <= 1
 constraint2_1572: Z_157_0_2 <= 1
 constraint2_1573: Z_157_0_3 <= 1
 constraint2_4830: Z_483_0_0 <= 1
 constraint2_4831: Z_483_0_1 <= 1
 constraint2_4832: Z_483_0_2 <= 1
 constraint2_4833: Z_483_0_3 <= 1
 constraint2_6230: Z_623_0_0 <= 1
 constraint2_6231: Z_623_0_1 <= 1
 constraint2_6232: Z_623_0_2 <= 1
 constraint2_6233: Z_623_0_3 <= 1
 constraint2_4210: Z_421_0_0 <= 1
 constraint2_4211: Z_421_0_1 <= 1
 constraint2_4212: Z_421_0_2 <= 1
 constraint2_4213: Z_421_0_3 <= 1
 constraint2_6360: Z_636_0_0 <= 1
 constraint2_6361: Z_636_0_1 <= 1
 constraint2_6362: Z_636_0_2 <= 1
 constraint2_6363: Z_636_0_3 <= 1
 constraint2_1190: Z_119_3_0 + Z_119_2_0 + Z_119_5_0 + Z_119_0_0
   + Z_119_4_0 + Z_119_6_0 + Z_119_7_0 <= 1
 constraint2_1191: Z_119_3_1 + Z_119_2_1 + Z_119_5_1 + Z_119_0_1
   + Z_119_4_1 + Z_119_6_1 + Z_119_7_1 <= 1
 constraint2_1192: Z_119_3_2 + Z_119_2_2 + Z_119_5_2 + Z_119_0_2
   + Z_119_4_2 + Z_119_6_2 + Z_119_7_2 <= 1
 constraint2_1193: Z_119_3_3 + Z_119_2_3 + Z_119_5_3 + Z_119_0_3
   + Z_119_4_3 + Z_119_6_3 + Z_119_7_3 <= 1
 constraint2_3090: Z_309_0_0 <= 1
 constraint2_3091: Z_309_0_1 <= 1
 constraint2_3092: Z_309_0_2 <= 1
 constraint2_3093: Z_309_0_3 <= 1
 constraint2_6280: Z_628_0_0 <= 1
 constraint2_6281: Z_628_0_1 <= 1
 constraint2_6282: Z_628_0_2 <= 1
 constraint2_6283: Z_628_0_3 <= 1
Bounds
Binaries
 Z_321_0_0 Z_321_0_1 Z_321_0_2 Z_321_0_3 Z_465_0_0 Z_465_0_1 Z_465_0_2
 Z_465_0_3 Z_45_0_0 Z_45_0_1 Z_45_0_2 Z_45_0_3 Z_45_1_0 Z_45_1_1 Z_45_1_2
 Z_45_1_3 Z_630_0_0 Z_630_0_1 Z_630_0_2 Z_630_0_3 Z_48_0_0 Z_48_0_1
 Z_48_0_2 Z_48_0_3 Z_513_0_0 Z_513_0_1 Z_513_0_2 Z_513_0_3 Z_324_4_0
 Z_324_4_1 Z_324_4_2 Z_324_4_3 Z_324_0_0 Z_324_0_1 Z_324_0_2 Z_324_0_3
 Z_324_2_0 Z_324_2_1 Z_324_2_2 Z_324_2_3 Z_324_1_0 Z_324_1_1 Z_324_1_2
 Z_324_1_3 Z_324_3_0 Z_324_3_1 Z_324_3_2 Z_324_3_3 Z_324_5_0 Z_324_5_1
 Z_324_5_2 Z_324_5_3 Z_602_0_0 Z_602_0_1 Z_602_0_2 Z_602_0_3 Z_326_0_0
 Z_326_0_1 Z_326_0_2 Z_326_0_3 Z_484_0_0 Z_484_0_1 Z_484_0_2 Z_484_0_3
 Z_157_0_0 Z_157_0_1 Z_157_0_2 Z_157_0_3 Z_483_0_0 Z_483_0_1 Z_483_0_2
 Z_483_0_3 Z_623_0_0 Z_623_0_1 Z_623_0_2 Z_623_0_3 Z_421_0_0 Z_421_0_1
 Z_421_0_2 Z_421_0_3 Z_636_0_0 Z_636_0_1 Z_636_0_2 Z_636_0_3 Z_119_3_0
 Z_119_3_1 Z_119_3_2 Z_119_3_3 Z_119_2_0 Z_119_2_1 Z_119_2_2 Z_119_2_3
 Z_119_5_0 Z_119_5_1 Z_119_5_2 Z_119_5_3 Z_119_0_0 Z_119_0_1 Z_119_0_2
 Z_119_0_3 Z_119_4_0 Z_119_4_1 Z_119_4_2 Z_119_4_3 Z_119_6_0 Z_119_6_1
 Z_119_6_2 Z_119_6_3 Z_119_7_0 Z_119_7_1 Z_119_7_2 Z_119_7_3 Z_309_0_0
 Z_309_0_1 Z_309_0_2 Z_309_0_3 Z_628_0_0 Z_628_0_1 Z_628_0_2 Z_628_0_3
End
